% seed = 7963269

mint = 50;
% maxt = 128;

nActs = 22;
dur = [0,6,10,6,5,8,9,1,8,6,9,4,8,10,4,7,1,6,7,10,3,0];

nSkills = 4;
sreq = [| 0,0,0,0,
	| 0,0,2,1,
	| 0,0,1,3,
	| 1,0,0,1,
	| 3,0,0,3,
	| 1,0,0,1,
	| 3,0,3,0,
	| 3,2,0,0,
	| 3,0,2,0,
	| 0,0,1,2,
	| 0,0,2,2,
	| 0,0,2,3,
	| 0,0,3,2,
	| 1,1,0,0,
	| 0,1,1,0,
	| 1,2,0,0,
	| 2,0,0,2,
	| 0,0,2,2,
	| 0,2,3,0,
	| 2,2,0,0,
	| 0,0,3,3,
	| 0,0,0,0, |];

nResources = 15;
mastery = [| false,true,true,true,
	| true,false,false,false,
	| true,false,true,true,
	| true,true,false,false,
	| true,false,true,true,
	| true,true,true,false,
	| true,false,false,true,
	| true,false,false,false,
	| false,false,false,true,
	| false,true,true,true,
	| true,false,false,true,
	| true,true,false,false,
	| true,false,false,true,
	| false,true,false,true,
	| true,true,false,false, |];

nPrecs = 31;
pred = [1,1,1,2,2,2,3,3,4,4,5,6,6,7,7,8,9,10,11,12,13,14,15,15,16,17,17,18,19,20,21];
succ = [2,3,4,11,6,16,11,7,21,5,9,10,8,20,12,17,13,14,12,19,19,15,18,21,21,19,20,20,22,22,22];

nUnrels = 127;
unpred = [2,2,2,2,2,2,3,3,3,3,3,3,3,3,3,3,3,3,3,4,4,4,4,4,4,4,4,4,4,4,4,5,5,5,5,5,5,5,5,5,5,5,5,5,6,6,6,6,6,6,7,7,7,7,7,7,7,7,7,7,7,8,8,8,8,8,8,8,8,8,8,9,9,9,9,9,9,9,9,9,9,10,10,10,10,10,10,11,11,11,11,11,11,11,11,12,12,12,12,12,12,12,12,13,13,13,13,13,13,13,14,14,14,15,15,15,16,16,16,16,17,17,18,18,19,19,20];
unsucc = [3,4,5,7,9,13,4,5,6,8,9,10,13,14,15,16,17,18,21,6,7,8,10,11,12,14,15,16,17,18,20,6,7,8,10,11,12,14,15,16,17,18,20,21,7,9,11,12,13,16,8,9,10,11,13,14,15,16,17,18,21,9,10,11,12,13,14,15,16,18,21,10,11,12,14,15,16,17,18,20,21,11,12,13,16,17,19,13,14,15,16,17,18,20,21,13,14,15,16,17,18,20,21,14,15,16,17,18,20,21,16,17,19,16,17,19,17,18,19,20,18,21,19,21,20,21,21];

USEFUL_RES = [{},
	{1,3,5,6,7,9,10,11,13,14},
	{1,3,5,6,7,9,10,11,13,14},
	{1,2,3,4,5,6,7,8,9,10,11,12,13,14,15},
	{1,2,3,4,5,6,7,8,9,10,11,12,13,14,15},
	{1,2,3,4,5,6,7,8,9,10,11,12,13,14,15},
	{1,2,3,4,5,6,7,8,10,11,12,13,15},
	{1,2,3,4,5,6,7,8,10,11,12,13,14,15},
	{1,2,3,4,5,6,7,8,10,11,12,13,15},
	{1,3,5,6,7,9,10,11,13,14},
	{1,3,5,6,7,9,10,11,13,14},
	{1,3,5,6,7,9,10,11,13,14},
	{1,3,5,6,7,9,10,11,13,14},
	{1,2,3,4,5,6,7,8,10,11,12,13,14,15},
	{1,3,4,5,6,10,12,14,15},
	{1,2,3,4,5,6,7,8,10,11,12,13,14,15},
	{1,2,3,4,5,6,7,8,9,10,11,12,13,14,15},
	{1,3,5,6,7,9,10,11,13,14},
	{1,3,4,5,6,10,12,14,15},
	{1,2,3,4,5,6,7,8,10,11,12,13,14,15},
	{1,3,5,6,7,9,10,11,13,14},
	{}];

POTENTIAL_ACT = [{2,3,4,5,6,7,8,9,10,11,12,13,14,15,16,17,18,19,20,21},
	{4,5,6,7,8,9,14,16,17,20},
	{2,3,4,5,6,7,8,9,10,11,12,13,14,15,16,17,18,19,20,21},
	{4,5,6,7,8,9,14,15,16,17,19,20},
	{2,3,4,5,6,7,8,9,10,11,12,13,14,15,16,17,18,19,20,21},
	{2,3,4,5,6,7,8,9,10,11,12,13,14,15,16,17,18,19,20,21},
	{2,3,4,5,6,7,8,9,10,11,12,13,14,16,17,18,20,21},
	{4,5,6,7,8,9,14,16,17,20},
	{2,3,4,5,6,10,11,12,13,17,18,21},
	{2,3,4,5,6,7,8,9,10,11,12,13,14,15,16,17,18,19,20,21},
	{2,3,4,5,6,7,8,9,10,11,12,13,14,16,17,18,20,21},
	{4,5,6,7,8,9,14,15,16,17,19,20},
	{2,3,4,5,6,7,8,9,10,11,12,13,14,16,17,18,20,21},
	{2,3,4,5,6,8,10,11,12,13,14,15,16,17,18,19,20,21},
	{4,5,6,7,8,9,14,15,16,17,19,20}];
